SCIP version 5.0.0 [precision: 8 byte] [memory: block] [mode: optimized] [LP solver: NONE] [GitHash: 3bbd232]
Copyright (C) 2002-2017 Konrad-Zuse-Zentrum fuer Informationstechnik Berlin (ZIB)

External codes: 
  Readline EditLine w  GNU library for command line editing (gnu.org/s/readline)
  CppAD 20160000.1     Algorithmic Differentiation of C++ algorithms developed by B. Bell (www.coin-or.org/CppAD)
  ZLIB 1.2.5           General purpose compression library by J. Gailly and M. Adler (zlib.net)
  GMP 6.1.2            GNU Multiple Precision Arithmetic Library developed by T. Granlund (gmplib.org)

user parameter file <scip.set> not found - using default parameters

read problem <../../Split_data/output/biodeg/1/1_sample_biodeg.logreg>
============

File name	:	../../Split_data/output/biodeg/1/1_sample_biodeg.logreg
Problem name 	:	1_sample_biodeg
Number of data	:	844
Number of var	:	41
The given data has linear independence

[dim=1] time: 0.041922
[dim=2] time: 0.07826
[dim=3] time: 0.11165
[dim=4] time: 0.145156
[dim=5] time: 0.174904
[dim=6] time: 0.204389
[dim=7] time: 0.232446
[dim=8] time: 0.260917
[dim=9] time: 0.289824
[dim=10] time: 0.31652
[dim=11] time: 0.344486
[dim=12] time: 0.369274
[dim=13] time: 0.394832
[dim=14] time: 0.420782
[dim=15] time: 0.445312
[dim=16] time: 0.468718
[dim=17] time: 0.491283
[dim=18] time: 0.507986
[dim=19] time: 0.531803
[dim=20] time: 0.548924
[dim=21] time: 0.565079
[dim=22] time: 0.584026
[dim=23] time: 0.600876
[dim=24] time: 0.616937
[dim=25] time: 0.65356
[dim=26] Time of forward = 0.667065sec.
AIC: 549.634
k: 25

[dim=41] time: 0.145624
[dim=40] time: 0.191144
[dim=39] time: 0.26413
[dim=38] time: 0.314337
[dim=37] time: 0.364207
[dim=36] time: 0.413603
[dim=35] time: 0.468967
[dim=34] time: 0.55808
[dim=33] time: 0.624949
[dim=32] time: 0.666871
[dim=31] time: 0.714708
[dim=30] time: 0.753961
[dim=29] time: 0.788216
[dim=28] time: 0.830492
[dim=27] time: 0.87244
[dim=26] time: 0.910599
[dim=25] time: 0.935653
[dim=24] time: 0.958301
[dim=23] Time of backward = 0.984804sec.
AIC: 541.688
k: 24
